g3 2 1 0	# problem toto
 6 8 1 0 4	# vars, constraints, objectives, ranges, eqns
 8 0	# nonlinear constraints, objectives
 0 0	# network constraints: nonlinear, linear
 4 0 0	# nonlinear vars in constraints, objectives, both
 0 0 0 1	# linear network variables; functions; arith, flags
 0 0 0 0 0	# discrete variables: binary, integer, nonlinear (b,c,o)
 26 1	# nonzeros in Jacobian, gradients
 0 0	# max name lengths: constraints, variables
 0 0 0 2 0	# common exprs: b,c,o,c1,o1
C0
o54
6
o2
n0.9615384615384615
o2
v0
v1
o2
n0.9615384615384615
o2
v2
v3
o2
n-4.8076923076923075
o2
v0
v3
o2
n4.8076923076923075
o2
v2
v1
o2
n-0.9615384615384615
o2
v1
v1
o2
n-0.9615384615384615
o2
v3
v3
C1
o54
6
o2
n0.9615384615384615
o2
v0
v3
o2
n-0.9615384615384615
o2
v2
v1
o2
n4.8076923076923075
o2
v0
v1
o2
n4.8076923076923075
o2
v2
v3
o2
n-4.8076923076923075
o2
v1
v1
o2
n-4.8076923076923075
o2
v3
v3
V6 0 3
o54
6
o2
n0.9615384615384615
o2
v0
v0
o2
n0.9615384615384615
o2
v2
v2
o2
n-0.9615384615384615
o2
v0
v1
o2
n-0.9615384615384615
o2
v2
v3
o2
n4.8076923076923075
o2
v2
v1
o2
n-4.8076923076923075
o2
v0
v3
C2
v6
V7 0 4
o54
6
o2
n4.8076923076923075
o2
v0
v0
o2
n4.8076923076923075
o2
v2
v2
o2
n-0.9615384615384615
o2
v2
v1
o2
n0.9615384615384615
o2
v0
v3
o2
n-4.8076923076923075
o2
v0
v1
o2
n-4.8076923076923075
o2
v2
v3
C3
v7
C4
o1
o16
o5
v2
n2
o5
v0
n2
C5
o1
o16
o5
v3
n2
o5
v1
n2
C6
o1
o16
o5
v2
n2
o5
v0
n2
C7
o1
o16
o5
v3
n2
o5
v1
n2
O0 0
n0
r
4 3.5
4 -3.5
4 0
4 0
1 -0.9025
1 -0.9025
2 -1.1025
2 -1.1025
b
3
3
3
3
0 0 6
0 -4 6
k5
6
12
18
24
25
J0 4
0 0
1 0
2 0
3 0
J1 4
0 0
1 0
2 0
3 0
J2 5
0 0
1 0
2 0
3 0
4 -1
J3 5
0 0
1 0
2 0
3 0
5 -1
J4 2
0 0
2 0
J5 2
1 0
3 0
J6 2
0 0
2 0
J7 2
1 0
3 0
G0 1
4 2
